
Route #1: 47 36 53 29 41 21 38 33 35 49 
Route #2: 6 56 32 40 50 46 
Route #3: 10 55 31 27 45 24 
Route #4: 8 51 25 37 20 42 39 23 
Route #5: 3 54 43 14 44 13 48 17 
Route #6: 5 52 18 9 28 34 7 
Route #7: 11 2 16 26 19 
Route #8: 15 4 30 12 1 
Route #9: 22 
cost 2024.5
total time is 5.4